p cnf 488 1866
42 -48 -27 0
-17 48 4 0
-38 -16 23 0
38 48 42 0
-32 -4 -42 0
10 15 -39 0
43 -16 -46 0
-24 -42 50 0
46 -48 37 0
45 22 -4 0
7 -41 37 0
46 13 -27 0
6 -27 -26 0
-32 -47 -36 0
-6 -46 48 0
-11 -1 -44 0
17 18 -26 0
-28 40 49 0
26 -35 3 0
-49 27 26 0
11 21 23 0
26 -5 -45 0
20 8 43 0
41 39 50 0
23 -4 -14 0
36 45 -21 0
-34 -33 -18 0
50 -43 -14 0
38 46 -48 0
-6 -37 50 0
4 36 11 0
34 -22 37 0
20 8 30 0
30 41 39 0
-39 45 34 0
-14 18 -8 0
8 -12 24 0
-49 27 5 0
42 6 -29 0
5 30 46 0
29 19 31 0
-26 46 -48 0
37 16 -29 0
34 -50 29 0
41 -36 1 0
4 -43 48 0
-32 -43 39 0
-43 48 32 0
25 -22 13 0
26 9 42 0
1 -2 51 0
-1 -2 -51 0
1 2 -51 0
-1 2 51 0
3 -6 52 0
-3 -6 -52 0
3 6 -52 0
-3 6 52 0
-7 -9 53 0
7 -9 -53 0
-7 9 -53 0
7 9 53 0
-11 12 54 0
11 12 -54 0
-11 -12 -54 0
11 -12 54 0
15 16 55 0
-15 16 -55 0
15 -16 -55 0
-15 -16 55 0
-22 -23 56 0
22 -23 -56 0
-22 23 -56 0
22 23 56 0
-26 -28 57 0
26 -28 -57 0
-26 28 -57 0
26 28 57 0
-31 -32 58 0
31 -32 -58 0
-31 32 -58 0
31 32 58 0
-34 -35 59 0
34 -35 -59 0
-34 35 -59 0
34 35 59 0
37 38 60 0
-37 38 -60 0
37 -38 -60 0
-37 -38 60 0
-39 -40 61 0
39 -40 -61 0
-39 40 -61 0
39 40 61 0
43 44 62 0
-43 44 -62 0
43 -44 -62 0
-43 -44 62 0
46 47 63 0
-46 47 -63 0
46 -47 -63 0
-46 -47 63 0
50 -51 64 0
-50 -51 -64 0
50 51 -64 0
-50 51 64 0
52 -53 65 0
-52 -53 -65 0
52 53 -65 0
-52 53 65 0
54 -55 66 0
-54 -55 -66 0
54 55 -66 0
-54 55 66 0
56 -57 67 0
-56 -57 -67 0
56 57 -67 0
-56 57 67 0
58 -59 68 0
-58 -59 -68 0
58 59 -68 0
-58 59 68 0
60 -61 69 0
-60 -61 -69 0
60 61 -69 0
-60 61 69 0
62 -63 70 0
-62 -63 -70 0
62 63 -70 0
-62 63 70 0
64 -65 71 0
-64 -65 -71 0
64 65 -71 0
-64 65 71 0
66 -67 72 0
-66 -67 -72 0
66 67 -72 0
-66 67 72 0
68 -69 73 0
-68 -69 -73 0
68 69 -73 0
-68 69 73 0
70 -71 74 0
-70 -71 -74 0
70 71 -74 0
-70 71 74 0
72 -73 75 0
-72 -73 -75 0
72 73 -75 0
-72 73 75 0
74 75 0
-74 -75 0
-5 6 76 0
5 6 -76 0
-5 -6 -76 0
5 -6 76 0
-9 13 77 0
9 13 -77 0
-9 -13 -77 0
9 -13 77 0
-18 -19 78 0
18 -19 -78 0
-18 19 -78 0
18 19 78 0
-20 22 79 0
20 22 -79 0
-20 -22 -79 0
20 -22 79 0
23 24 80 0
-23 24 -80 0
23 -24 -80 0
-23 -24 80 0
-25 27 81 0
25 27 -81 0
-25 -27 -81 0
25 -27 81 0
-28 -30 82 0
28 -30 -82 0
-28 30 -82 0
28 30 82 0
-31 32 83 0
31 32 -83 0
-31 -32 -83 0
31 -32 83 0
-35 36 84 0
35 36 -84 0
-35 -36 -84 0
35 -36 84 0
42 43 85 0
-42 43 -85 0
42 -43 -85 0
-42 -43 85 0
44 -45 86 0
-44 -45 -86 0
44 45 -86 0
-44 45 86 0
48 49 87 0
-48 49 -87 0
48 -49 -87 0
-48 -49 87 0
76 -77 88 0
-76 -77 -88 0
76 77 -88 0
-76 77 88 0
78 -79 89 0
-78 -79 -89 0
78 79 -89 0
-78 79 89 0
80 -81 90 0
-80 -81 -90 0
80 81 -90 0
-80 81 90 0
82 -83 91 0
-82 -83 -91 0
82 83 -91 0
-82 83 91 0
84 -85 92 0
-84 -85 -92 0
84 85 -92 0
-84 85 92 0
86 -87 93 0
-86 -87 -93 0
86 87 -93 0
-86 87 93 0
88 -89 94 0
-88 -89 -94 0
88 89 -94 0
-88 89 94 0
90 -91 95 0
-90 -91 -95 0
90 91 -95 0
-90 91 95 0
92 -93 96 0
-92 -93 -96 0
92 93 -96 0
-92 93 96 0
-94 -95 96 0
94 -95 -96 0
-94 95 -96 0
94 95 96 0
-1 -2 97 0
1 -2 -97 0
-1 2 -97 0
1 2 97 0
-4 -5 98 0
4 -5 -98 0
-4 5 -98 0
4 5 98 0
6 -7 99 0
-6 -7 -99 0
6 7 -99 0
-6 7 99 0
8 11 100 0
-8 11 -100 0
8 -11 -100 0
-8 -11 100 0
13 -14 101 0
-13 -14 -101 0
13 14 -101 0
-13 14 101 0
16 18 102 0
-16 18 -102 0
16 -18 -102 0
-16 -18 102 0
21 -22 103 0
-21 -22 -103 0
21 22 -103 0
-21 22 103 0
25 -26 104 0
-25 -26 -104 0
25 26 -104 0
-25 26 104 0
-28 34 105 0
28 34 -105 0
-28 -34 -105 0
28 -34 105 0
37 39 106 0
-37 39 -106 0
37 -39 -106 0
-37 -39 106 0
41 -42 107 0
-41 -42 -107 0
41 42 -107 0
-41 42 107 0
43 -45 108 0
-43 -45 -108 0
43 45 -108 0
-43 45 108 0
46 -48 109 0
-46 -48 -109 0
46 48 -109 0
-46 48 109 0
49 -50 110 0
-49 -50 -110 0
49 50 -110 0
-49 50 110 0
97 -98 111 0
-97 -98 -111 0
97 98 -111 0
-97 98 111 0
99 -100 112 0
-99 -100 -112 0
99 100 -112 0
-99 100 112 0
101 -102 113 0
-101 -102 -113 0
101 102 -113 0
-101 102 113 0
103 -104 114 0
-103 -104 -114 0
103 104 -114 0
-103 104 114 0
105 -106 115 0
-105 -106 -115 0
105 106 -115 0
-105 106 115 0
107 -108 116 0
-107 -108 -116 0
107 108 -116 0
-107 108 116 0
109 -110 117 0
-109 -110 -117 0
109 110 -117 0
-109 110 117 0
111 -112 118 0
-111 -112 -118 0
111 112 -118 0
-111 112 118 0
113 -114 119 0
-113 -114 -119 0
113 114 -119 0
-113 114 119 0
115 -116 120 0
-115 -116 -120 0
115 116 -120 0
-115 116 120 0
117 -118 121 0
-117 -118 -121 0
117 118 -121 0
-117 118 121 0
119 -120 122 0
-119 -120 -122 0
119 120 -122 0
-119 120 122 0
121 122 0
-121 -122 0
1 -4 123 0
-1 -4 -123 0
1 4 -123 0
-1 4 123 0
7 -8 124 0
-7 -8 -124 0
7 8 -124 0
-7 8 124 0
-9 10 125 0
9 10 -125 0
-9 -10 -125 0
9 -10 125 0
-13 -16 126 0
13 -16 -126 0
-13 16 -126 0
13 16 126 0
-25 27 127 0
25 27 -127 0
-25 -27 -127 0
25 -27 127 0
-28 30 128 0
28 30 -128 0
-28 -30 -128 0
28 -30 128 0
-31 -32 129 0
31 -32 -129 0
-31 32 -129 0
31 32 129 0
-34 -37 130 0
34 -37 -130 0
-34 37 -130 0
34 37 130 0
38 -41 131 0
-38 -41 -131 0
38 41 -131 0
-38 41 131 0
45 -46 132 0
-45 -46 -132 0
45 46 -132 0
-45 46 132 0
-48 -49 133 0
48 -49 -133 0
-48 49 -133 0
48 49 133 0
122 -123 134 0
-122 -123 -134 0
122 123 -134 0
-122 123 134 0
124 -125 135 0
-124 -125 -135 0
124 125 -135 0
-124 125 135 0
126 -127 136 0
-126 -127 -136 0
126 127 -136 0
-126 127 136 0
128 -129 137 0
-128 -129 -137 0
128 129 -137 0
-128 129 137 0
130 -131 138 0
-130 -131 -138 0
130 131 -138 0
-130 131 138 0
132 -133 139 0
-132 -133 -139 0
132 133 -139 0
-132 133 139 0
134 -135 140 0
-134 -135 -140 0
134 135 -140 0
-134 135 140 0
136 -137 141 0
-136 -137 -141 0
136 137 -141 0
-136 137 141 0
138 -139 142 0
-138 -139 -142 0
138 139 -142 0
-138 139 142 0
-140 -141 142 0
140 -141 -142 0
-140 141 -142 0
140 141 142 0
-5 -7 143 0
5 -7 -143 0
-5 7 -143 0
5 7 143 0
10 -11 144 0
-10 -11 -144 0
10 11 -144 0
-10 11 144 0
16 22 145 0
-16 22 -145 0
16 -22 -145 0
-16 -22 145 0
23 24 146 0
-23 24 -146 0
23 -24 -146 0
-23 -24 146 0
25 26 147 0
-25 26 -147 0
25 -26 -147 0
-25 -26 147 0
-28 29 148 0
28 29 -148 0
-28 -29 -148 0
28 -29 148 0
-31 -32 149 0
31 -32 -149 0
-31 32 -149 0
31 32 149 0
33 -35 150 0
-33 -35 -150 0
33 35 -150 0
-33 35 150 0
-36 37 151 0
36 37 -151 0
-36 -37 -151 0
36 -37 151 0
-43 45 152 0
43 45 -152 0
-43 -45 -152 0
43 -45 152 0
-46 -50 153 0
46 -50 -153 0
-46 50 -153 0
46 50 153 0
143 -144 154 0
-143 -144 -154 0
143 144 -154 0
-143 144 154 0
145 -146 155 0
-145 -146 -155 0
145 146 -155 0
-145 146 155 0
147 -148 156 0
-147 -148 -156 0
147 148 -156 0
-147 148 156 0
149 -150 157 0
-149 -150 -157 0
149 150 -157 0
-149 150 157 0
151 -152 158 0
-151 -152 -158 0
151 152 -158 0
-151 152 158 0
153 -154 159 0
-153 -154 -159 0
153 154 -159 0
-153 154 159 0
155 -156 160 0
-155 -156 -160 0
155 156 -160 0
-155 156 160 0
157 -158 161 0
-157 -158 -161 0
157 158 -161 0
-157 158 161 0
-159 -160 161 0
159 -160 -161 0
-159 160 -161 0
159 160 161 0
1 2 162 0
-1 2 -162 0
1 -2 -162 0
-1 -2 162 0
5 -6 163 0
-5 -6 -163 0
5 6 -163 0
-5 6 163 0
8 10 164 0
-8 10 -164 0
8 -10 -164 0
-8 -10 164 0
-12 -15 165 0
12 -15 -165 0
-12 15 -165 0
12 15 165 0
17 20 166 0
-17 20 -166 0
17 -20 -166 0
-17 -20 166 0
-21 -22 167 0
21 -22 -167 0
-21 22 -167 0
21 22 167 0
-26 27 168 0
26 27 -168 0
-26 -27 -168 0
26 -27 168 0
-28 -29 169 0
28 -29 -169 0
-28 29 -169 0
28 29 169 0
-31 33 170 0
31 33 -170 0
-31 -33 -170 0
31 -33 170 0
-36 39 171 0
36 39 -171 0
-36 -39 -171 0
36 -39 171 0
43 44 172 0
-43 44 -172 0
43 -44 -172 0
-43 -44 172 0
45 47 173 0
-45 47 -173 0
45 -47 -173 0
-45 -47 173 0
161 -162 174 0
-161 -162 -174 0
161 162 -174 0
-161 162 174 0
163 -164 175 0
-163 -164 -175 0
163 164 -175 0
-163 164 175 0
165 -166 176 0
-165 -166 -176 0
165 166 -176 0
-165 166 176 0
167 -168 177 0
-167 -168 -177 0
167 168 -177 0
-167 168 177 0
169 -170 178 0
-169 -170 -178 0
169 170 -178 0
-169 170 178 0
171 -172 179 0
-171 -172 -179 0
171 172 -179 0
-171 172 179 0
173 -174 180 0
-173 -174 -180 0
173 174 -180 0
-173 174 180 0
175 -176 181 0
-175 -176 -181 0
175 176 -181 0
-175 176 181 0
177 -178 182 0
-177 -178 -182 0
177 178 -182 0
-177 178 182 0
179 -180 183 0
-179 -180 -183 0
179 180 -183 0
-179 180 183 0
181 -182 184 0
-181 -182 -184 0
181 182 -184 0
-181 182 184 0
183 184 0
-183 -184 0
2 -3 185 0
-2 -3 -185 0
2 3 -185 0
-2 3 185 0
5 6 186 0
-5 6 -186 0
5 -6 -186 0
-5 -6 186 0
-7 -9 187 0
7 -9 -187 0
-7 9 -187 0
7 9 187 0
-10 11 188 0
10 11 -188 0
-10 -11 -188 0
10 -11 188 0
14 -16 189 0
-14 -16 -189 0
14 16 -189 0
-14 16 189 0
18 20 190 0
-18 20 -190 0
18 -20 -190 0
-18 -20 190 0
22 -23 191 0
-22 -23 -191 0
22 23 -191 0
-22 23 191 0
25 -26 192 0
-25 -26 -192 0
25 26 -192 0
-25 26 192 0
-27 -28 193 0
27 -28 -193 0
-27 28 -193 0
27 28 193 0
-29 -30 194 0
29 -30 -194 0
-29 30 -194 0
29 30 194 0
-33 -34 195 0
33 -34 -195 0
-33 34 -195 0
33 34 195 0
-41 43 196 0
41 43 -196 0
-41 -43 -196 0
41 -43 196 0
44 45 197 0
-44 45 -197 0
44 -45 -197 0
-44 -45 197 0
46 47 198 0
-46 47 -198 0
46 -47 -198 0
-46 -47 198 0
184 -185 199 0
-184 -185 -199 0
184 185 -199 0
-184 185 199 0
186 -187 200 0
-186 -187 -200 0
186 187 -200 0
-186 187 200 0
188 -189 201 0
-188 -189 -201 0
188 189 -201 0
-188 189 201 0
190 -191 202 0
-190 -191 -202 0
190 191 -202 0
-190 191 202 0
192 -193 203 0
-192 -193 -203 0
192 193 -203 0
-192 193 203 0
194 -195 204 0
-194 -195 -204 0
194 195 -204 0
-194 195 204 0
196 -197 205 0
-196 -197 -205 0
196 197 -205 0
-196 197 205 0
198 -199 206 0
-198 -199 -206 0
198 199 -206 0
-198 199 206 0
200 -201 207 0
-200 -201 -207 0
200 201 -207 0
-200 201 207 0
202 -203 208 0
-202 -203 -208 0
202 203 -208 0
-202 203 208 0
204 -205 209 0
-204 -205 -209 0
204 205 -209 0
-204 205 209 0
206 -207 210 0
-206 -207 -210 0
206 207 -210 0
-206 207 210 0
208 -209 211 0
-208 -209 -211 0
208 209 -211 0
-208 209 211 0
210 211 0
-210 -211 0
-2 3 212 0
2 3 -212 0
-2 -3 -212 0
2 -3 212 0
4 -7 213 0
-4 -7 -213 0
4 7 -213 0
-4 7 213 0
8 9 214 0
-8 9 -214 0
8 -9 -214 0
-8 -9 214 0
10 -11 215 0
-10 -11 -215 0
10 11 -215 0
-10 11 215 0
-12 -13 216 0
12 -13 -216 0
-12 13 -216 0
12 13 216 0
15 -16 217 0
-15 -16 -217 0
15 16 -217 0
-15 16 217 0
20 -21 218 0
-20 -21 -218 0
20 21 -218 0
-20 21 218 0
-24 25 219 0
24 25 -219 0
-24 -25 -219 0
24 -25 219 0
-27 -28 220 0
27 -28 -220 0
-27 28 -220 0
27 28 220 0
30 32 221 0
-30 32 -221 0
30 -32 -221 0
-30 -32 221 0
33 34 222 0
-33 34 -222 0
33 -34 -222 0
-33 -34 222 0
-38 39 223 0
38 39 -223 0
-38 -39 -223 0
38 -39 223 0
40 41 224 0
-40 41 -224 0
40 -41 -224 0
-40 -41 224 0
-43 46 225 0
43 46 -225 0
-43 -46 -225 0
43 -46 225 0
-47 49 226 0
47 49 -226 0
-47 -49 -226 0
47 -49 226 0
212 -213 227 0
-212 -213 -227 0
212 213 -227 0
-212 213 227 0
214 -215 228 0
-214 -215 -228 0
214 215 -228 0
-214 215 228 0
216 -217 229 0
-216 -217 -229 0
216 217 -229 0
-216 217 229 0
218 -219 230 0
-218 -219 -230 0
218 219 -230 0
-218 219 230 0
220 -221 231 0
-220 -221 -231 0
220 221 -231 0
-220 221 231 0
222 -223 232 0
-222 -223 -232 0
222 223 -232 0
-222 223 232 0
224 -225 233 0
-224 -225 -233 0
224 225 -233 0
-224 225 233 0
226 -227 234 0
-226 -227 -234 0
226 227 -234 0
-226 227 234 0
228 -229 235 0
-228 -229 -235 0
228 229 -235 0
-228 229 235 0
230 -231 236 0
-230 -231 -236 0
230 231 -236 0
-230 231 236 0
232 -233 237 0
-232 -233 -237 0
232 233 -237 0
-232 233 237 0
234 -235 238 0
-234 -235 -238 0
234 235 -238 0
-234 235 238 0
236 -237 239 0
-236 -237 -239 0
236 237 -239 0
-236 237 239 0
238 239 0
-238 -239 0
-7 8 240 0
7 8 -240 0
-7 -8 -240 0
7 -8 240 0
-13 14 241 0
13 14 -241 0
-13 -14 -241 0
13 -14 241 0
22 23 242 0
-22 23 -242 0
22 -23 -242 0
-22 -23 242 0
24 -25 243 0
-24 -25 -243 0
24 25 -243 0
-24 25 243 0
-26 27 244 0
26 27 -244 0
-26 -27 -244 0
26 -27 244 0
29 -32 245 0
-29 -32 -245 0
29 32 -245 0
-29 32 245 0
35 -36 246 0
-35 -36 -246 0
35 36 -246 0
-35 36 246 0
-37 -38 247 0
37 -38 -247 0
-37 38 -247 0
37 38 247 0
41 -43 248 0
-41 -43 -248 0
41 43 -248 0
-41 43 248 0
239 -240 249 0
-239 -240 -249 0
239 240 -249 0
-239 240 249 0
241 -242 250 0
-241 -242 -250 0
241 242 -250 0
-241 242 250 0
243 -244 251 0
-243 -244 -251 0
243 244 -251 0
-243 244 251 0
245 -246 252 0
-245 -246 -252 0
245 246 -252 0
-245 246 252 0
247 -248 253 0
-247 -248 -253 0
247 248 -253 0
-247 248 253 0
249 -250 254 0
-249 -250 -254 0
249 250 -254 0
-249 250 254 0
251 -252 255 0
-251 -252 -255 0
251 252 -255 0
-251 252 255 0
-253 -254 255 0
253 -254 -255 0
-253 254 -255 0
253 254 255 0
3 4 256 0
-3 4 -256 0
3 -4 -256 0
-3 -4 256 0
5 -7 257 0
-5 -7 -257 0
5 7 -257 0
-5 7 257 0
8 -9 258 0
-8 -9 -258 0
8 9 -258 0
-8 9 258 0
-13 -14 259 0
13 -14 -259 0
-13 14 -259 0
13 14 259 0
-15 17 260 0
15 17 -260 0
-15 -17 -260 0
15 -17 260 0
-18 -21 261 0
18 -21 -261 0
-18 21 -261 0
18 21 261 0
-22 24 262 0
22 24 -262 0
-22 -24 -262 0
22 -24 262 0
-25 -26 263 0
25 -26 -263 0
-25 26 -263 0
25 26 263 0
28 29 264 0
-28 29 -264 0
28 -29 -264 0
-28 -29 264 0
30 34 265 0
-30 34 -265 0
30 -34 -265 0
-30 -34 265 0
-36 -37 266 0
36 -37 -266 0
-36 37 -266 0
36 37 266 0
40 -42 267 0
-40 -42 -267 0
40 42 -267 0
-40 42 267 0
44 -45 268 0
-44 -45 -268 0
44 45 -268 0
-44 45 268 0
-47 -48 269 0
47 -48 -269 0
-47 48 -269 0
47 48 269 0
255 -256 270 0
-255 -256 -270 0
255 256 -270 0
-255 256 270 0
257 -258 271 0
-257 -258 -271 0
257 258 -271 0
-257 258 271 0
259 -260 272 0
-259 -260 -272 0
259 260 -272 0
-259 260 272 0
261 -262 273 0
-261 -262 -273 0
261 262 -273 0
-261 262 273 0
263 -264 274 0
-263 -264 -274 0
263 264 -274 0
-263 264 274 0
265 -266 275 0
-265 -266 -275 0
265 266 -275 0
-265 266 275 0
267 -268 276 0
-267 -268 -276 0
267 268 -276 0
-267 268 276 0
269 -270 277 0
-269 -270 -277 0
269 270 -277 0
-269 270 277 0
271 -272 278 0
-271 -272 -278 0
271 272 -278 0
-271 272 278 0
273 -274 279 0
-273 -274 -279 0
273 274 -279 0
-273 274 279 0
275 -276 280 0
-275 -276 -280 0
275 276 -280 0
-275 276 280 0
277 -278 281 0
-277 -278 -281 0
277 278 -281 0
-277 278 281 0
279 -280 282 0
-279 -280 -282 0
279 280 -282 0
-279 280 282 0
281 282 0
-281 -282 0
1 2 283 0
-1 2 -283 0
1 -2 -283 0
-1 -2 283 0
3 4 284 0
-3 4 -284 0
3 -4 -284 0
-3 -4 284 0
-5 -10 285 0
5 -10 -285 0
-5 10 -285 0
5 10 285 0
11 -16 286 0
-11 -16 -286 0
11 16 -286 0
-11 16 286 0
18 19 287 0
-18 19 -287 0
18 -19 -287 0
-18 -19 287 0
-21 22 288 0
21 22 -288 0
-21 -22 -288 0
21 -22 288 0
25 26 289 0
-25 26 -289 0
25 -26 -289 0
-25 -26 289 0
-27 -31 290 0
27 -31 -290 0
-27 31 -290 0
27 31 290 0
33 37 291 0
-33 37 -291 0
33 -37 -291 0
-33 -37 291 0
-38 -44 292 0
38 -44 -292 0
-38 44 -292 0
38 44 292 0
45 -46 293 0
-45 -46 -293 0
45 46 -293 0
-45 46 293 0
282 -283 294 0
-282 -283 -294 0
282 283 -294 0
-282 283 294 0
284 -285 295 0
-284 -285 -295 0
284 285 -295 0
-284 285 295 0
286 -287 296 0
-286 -287 -296 0
286 287 -296 0
-286 287 296 0
288 -289 297 0
-288 -289 -297 0
288 289 -297 0
-288 289 297 0
290 -291 298 0
-290 -291 -298 0
290 291 -298 0
-290 291 298 0
292 -293 299 0
-292 -293 -299 0
292 293 -299 0
-292 293 299 0
294 -295 300 0
-294 -295 -300 0
294 295 -300 0
-294 295 300 0
296 -297 301 0
-296 -297 -301 0
296 297 -301 0
-296 297 301 0
298 -299 302 0
-298 -299 -302 0
298 299 -302 0
-298 299 302 0
-300 -301 302 0
300 -301 -302 0
-300 301 -302 0
300 301 302 0
-2 -4 303 0
2 -4 -303 0
-2 4 -303 0
2 4 303 0
-5 7 304 0
5 7 -304 0
-5 -7 -304 0
5 -7 304 0
-8 10 305 0
8 10 -305 0
-8 -10 -305 0
8 -10 305 0
-11 -13 306 0
11 -13 -306 0
-11 13 -306 0
11 13 306 0
-17 -18 307 0
17 -18 -307 0
-17 18 -307 0
17 18 307 0
19 20 308 0
-19 20 -308 0
19 -20 -308 0
-19 -20 308 0
21 22 309 0
-21 22 -309 0
21 -22 -309 0
-21 -22 309 0
23 24 310 0
-23 24 -310 0
23 -24 -310 0
-23 -24 310 0
25 27 311 0
-25 27 -311 0
25 -27 -311 0
-25 -27 311 0
-29 -31 312 0
29 -31 -312 0
-29 31 -312 0
29 31 312 0
-32 -34 313 0
32 -34 -313 0
-32 34 -313 0
32 34 313 0
-35 36 314 0
35 36 -314 0
-35 -36 -314 0
35 -36 314 0
-38 -39 315 0
38 -39 -315 0
-38 39 -315 0
38 39 315 0
-40 -41 316 0
40 -41 -316 0
-40 41 -316 0
40 41 316 0
-42 44 317 0
42 44 -317 0
-42 -44 -317 0
42 -44 317 0
303 -304 318 0
-303 -304 -318 0
303 304 -318 0
-303 304 318 0
305 -306 319 0
-305 -306 -319 0
305 306 -319 0
-305 306 319 0
307 -308 320 0
-307 -308 -320 0
307 308 -320 0
-307 308 320 0
309 -310 321 0
-309 -310 -321 0
309 310 -321 0
-309 310 321 0
311 -312 322 0
-311 -312 -322 0
311 312 -322 0
-311 312 322 0
313 -314 323 0
-313 -314 -323 0
313 314 -323 0
-313 314 323 0
315 -316 324 0
-315 -316 -324 0
315 316 -324 0
-315 316 324 0
317 -318 325 0
-317 -318 -325 0
317 318 -325 0
-317 318 325 0
319 -320 326 0
-319 -320 -326 0
319 320 -326 0
-319 320 326 0
321 -322 327 0
-321 -322 -327 0
321 322 -327 0
-321 322 327 0
323 -324 328 0
-323 -324 -328 0
323 324 -328 0
-323 324 328 0
325 -326 329 0
-325 -326 -329 0
325 326 -329 0
-325 326 329 0
327 -328 330 0
-327 -328 -330 0
327 328 -330 0
-327 328 330 0
329 330 0
-329 -330 0
-7 -9 331 0
7 -9 -331 0
-7 9 -331 0
7 9 331 0
-11 -13 332 0
11 -13 -332 0
-11 13 -332 0
11 13 332 0
14 19 333 0
-14 19 -333 0
14 -19 -333 0
-14 -19 333 0
20 -22 334 0
-20 -22 -334 0
20 22 -334 0
-20 22 334 0
-24 -30 335 0
24 -30 -335 0
-24 30 -335 0
24 30 335 0
32 -34 336 0
-32 -34 -336 0
32 34 -336 0
-32 34 336 0
36 -37 337 0
-36 -37 -337 0
36 37 -337 0
-36 37 337 0
38 -40 338 0
-38 -40 -338 0
38 40 -338 0
-38 40 338 0
42 46 339 0
-42 46 -339 0
42 -46 -339 0
-42 -46 339 0
-48 50 340 0
48 50 -340 0
-48 -50 -340 0
48 -50 340 0
331 -332 341 0
-331 -332 -341 0
331 332 -341 0
-331 332 341 0
333 -334 342 0
-333 -334 -342 0
333 334 -342 0
-333 334 342 0
335 -336 343 0
-335 -336 -343 0
335 336 -343 0
-335 336 343 0
337 -338 344 0
-337 -338 -344 0
337 338 -344 0
-337 338 344 0
339 -340 345 0
-339 -340 -345 0
339 340 -345 0
-339 340 345 0
341 -342 346 0
-341 -342 -346 0
341 342 -346 0
-341 342 346 0
343 -344 347 0
-343 -344 -347 0
343 344 -347 0
-343 344 347 0
-345 -346 347 0
345 -346 -347 0
-345 346 -347 0
345 346 347 0
2 3 348 0
-2 3 -348 0
2 -3 -348 0
-2 -3 348 0
5 -8 349 0
-5 -8 -349 0
5 8 -349 0
-5 8 349 0
-10 11 350 0
10 11 -350 0
-10 -11 -350 0
10 -11 350 0
12 14 351 0
-12 14 -351 0
12 -14 -351 0
-12 -14 351 0
15 -16 352 0
-15 -16 -352 0
15 16 -352 0
-15 16 352 0
-17 -19 353 0
17 -19 -353 0
-17 19 -353 0
17 19 353 0
-23 25 354 0
23 25 -354 0
-23 -25 -354 0
23 -25 354 0
26 29 355 0
-26 29 -355 0
26 -29 -355 0
-26 -29 355 0
32 -35 356 0
-32 -35 -356 0
32 35 -356 0
-32 35 356 0
37 -38 357 0
-37 -38 -357 0
37 38 -357 0
-37 38 357 0
40 -41 358 0
-40 -41 -358 0
40 41 -358 0
-40 41 358 0
47 48 359 0
-47 48 -359 0
47 -48 -359 0
-47 -48 359 0
348 -349 360 0
-348 -349 -360 0
348 349 -360 0
-348 349 360 0
350 -351 361 0
-350 -351 -361 0
350 351 -361 0
-350 351 361 0
352 -353 362 0
-352 -353 -362 0
352 353 -362 0
-352 353 362 0
354 -355 363 0
-354 -355 -363 0
354 355 -363 0
-354 355 363 0
356 -357 364 0
-356 -357 -364 0
356 357 -364 0
-356 357 364 0
358 -359 365 0
-358 -359 -365 0
358 359 -365 0
-358 359 365 0
360 -361 366 0
-360 -361 -366 0
360 361 -366 0
-360 361 366 0
362 -363 367 0
-362 -363 -367 0
362 363 -367 0
-362 363 367 0
364 -365 368 0
-364 -365 -368 0
364 365 -368 0
-364 365 368 0
-366 -367 368 0
366 -367 -368 0
-366 367 -368 0
366 367 368 0
1 -4 369 0
-1 -4 -369 0
1 4 -369 0
-1 4 369 0
-5 6 370 0
5 6 -370 0
-5 -6 -370 0
5 -6 370 0
-7 -13 371 0
7 -13 -371 0
-7 13 -371 0
7 13 371 0
15 18 372 0
-15 18 -372 0
15 -18 -372 0
-15 -18 372 0
20 -23 373 0
-20 -23 -373 0
20 23 -373 0
-20 23 373 0
-26 28 374 0
26 28 -374 0
-26 -28 -374 0
26 -28 374 0
-29 -30 375 0
29 -30 -375 0
-29 30 -375 0
29 30 375 0
-34 37 376 0
34 37 -376 0
-34 -37 -376 0
34 -37 376 0
-38 -39 377 0
38 -39 -377 0
-38 39 -377 0
38 39 377 0
44 45 378 0
-44 45 -378 0
44 -45 -378 0
-44 -45 378 0
368 -369 379 0
-368 -369 -379 0
368 369 -379 0
-368 369 379 0
370 -371 380 0
-370 -371 -380 0
370 371 -380 0
-370 371 380 0
372 -373 381 0
-372 -373 -381 0
372 373 -381 0
-372 373 381 0
374 -375 382 0
-374 -375 -382 0
374 375 -382 0
-374 375 382 0
376 -377 383 0
-376 -377 -383 0
376 377 -383 0
-376 377 383 0
378 -379 384 0
-378 -379 -384 0
378 379 -384 0
-378 379 384 0
380 -381 385 0
-380 -381 -385 0
380 381 -385 0
-380 381 385 0
382 -383 386 0
-382 -383 -386 0
382 383 -386 0
-382 383 386 0
-384 -385 386 0
384 -385 -386 0
-384 385 -386 0
384 385 386 0
3 5 387 0
-3 5 -387 0
3 -5 -387 0
-3 -5 387 0
-6 -11 388 0
6 -11 -388 0
-6 11 -388 0
6 11 388 0
12 14 389 0
-12 14 -389 0
12 -14 -389 0
-12 -14 389 0
-20 24 390 0
20 24 -390 0
-20 -24 -390 0
20 -24 390 0
27 28 391 0
-27 28 -391 0
27 -28 -391 0
-27 -28 391 0
31 -32 392 0
-31 -32 -392 0
31 32 -392 0
-31 32 392 0
33 -34 393 0
-33 -34 -393 0
33 34 -393 0
-33 34 393 0
39 -41 394 0
-39 -41 -394 0
39 41 -394 0
-39 41 394 0
43 44 395 0
-43 44 -395 0
43 -44 -395 0
-43 -44 395 0
386 -387 396 0
-386 -387 -396 0
386 387 -396 0
-386 387 396 0
388 -389 397 0
-388 -389 -397 0
388 389 -397 0
-388 389 397 0
390 -391 398 0
-390 -391 -398 0
390 391 -398 0
-390 391 398 0
392 -393 399 0
-392 -393 -399 0
392 393 -399 0
-392 393 399 0
394 -395 400 0
-394 -395 -400 0
394 395 -400 0
-394 395 400 0
396 -397 401 0
-396 -397 -401 0
396 397 -401 0
-396 397 401 0
398 -399 402 0
-398 -399 -402 0
398 399 -402 0
-398 399 402 0
-400 -401 402 0
400 -401 -402 0
-400 401 -402 0
400 401 402 0
-1 2 403 0
1 2 -403 0
-1 -2 -403 0
1 -2 403 0
5 6 404 0
-5 6 -404 0
5 -6 -404 0
-5 -6 404 0
-7 -8 405 0
7 -8 -405 0
-7 8 -405 0
7 8 405 0
-10 -16 406 0
10 -16 -406 0
-10 16 -406 0
10 16 406 0
19 20 407 0
-19 20 -407 0
19 -20 -407 0
-19 -20 407 0
25 -27 408 0
-25 -27 -408 0
25 27 -408 0
-25 27 408 0
29 -30 409 0
-29 -30 -409 0
29 30 -409 0
-29 30 409 0
-32 -34 410 0
32 -34 -410 0
-32 34 -410 0
32 34 410 0
-36 -40 411 0
36 -40 -411 0
-36 40 -411 0
36 40 411 0
-41 45 412 0
41 45 -412 0
-41 -45 -412 0
41 -45 412 0
-47 -49 413 0
47 -49 -413 0
-47 49 -413 0
47 49 413 0
402 -403 414 0
-402 -403 -414 0
402 403 -414 0
-402 403 414 0
404 -405 415 0
-404 -405 -415 0
404 405 -415 0
-404 405 415 0
406 -407 416 0
-406 -407 -416 0
406 407 -416 0
-406 407 416 0
408 -409 417 0
-408 -409 -417 0
408 409 -417 0
-408 409 417 0
410 -411 418 0
-410 -411 -418 0
410 411 -418 0
-410 411 418 0
412 -413 419 0
-412 -413 -419 0
412 413 -419 0
-412 413 419 0
414 -415 420 0
-414 -415 -420 0
414 415 -420 0
-414 415 420 0
416 -417 421 0
-416 -417 -421 0
416 417 -421 0
-416 417 421 0
418 -419 422 0
-418 -419 -422 0
418 419 -422 0
-418 419 422 0
-420 -421 422 0
420 -421 -422 0
-420 421 -422 0
420 421 422 0
5 -8 423 0
-5 -8 -423 0
5 8 -423 0
-5 8 423 0
9 -11 424 0
-9 -11 -424 0
9 11 -424 0
-9 11 424 0
13 15 425 0
-13 15 -425 0
13 -15 -425 0
-13 -15 425 0
-17 18 426 0
17 18 -426 0
-17 -18 -426 0
17 -18 426 0
20 22 427 0
-20 22 -427 0
20 -22 -427 0
-20 -22 427 0
23 -25 428 0
-23 -25 -428 0
23 25 -428 0
-23 25 428 0
27 35 429 0
-27 35 -429 0
27 -35 -429 0
-27 -35 429 0
-42 43 430 0
42 43 -430 0
-42 -43 -430 0
42 -43 430 0
-49 50 431 0
49 50 -431 0
-49 -50 -431 0
49 -50 431 0
423 -424 432 0
-423 -424 -432 0
423 424 -432 0
-423 424 432 0
425 -426 433 0
-425 -426 -433 0
425 426 -433 0
-425 426 433 0
427 -428 434 0
-427 -428 -434 0
427 428 -434 0
-427 428 434 0
429 -430 435 0
-429 -430 -435 0
429 430 -435 0
-429 430 435 0
431 -432 436 0
-431 -432 -436 0
431 432 -436 0
-431 432 436 0
433 -434 437 0
-433 -434 -437 0
433 434 -437 0
-433 434 437 0
-435 -436 437 0
435 -436 -437 0
-435 436 -437 0
435 436 437 0
1 3 438 0
-1 3 -438 0
1 -3 -438 0
-1 -3 438 0
5 -6 439 0
-5 -6 -439 0
5 6 -439 0
-5 6 439 0
7 10 440 0
-7 10 -440 0
7 -10 -440 0
-7 -10 440 0
15 -18 441 0
-15 -18 -441 0
15 18 -441 0
-15 18 441 0
20 -21 442 0
-20 -21 -442 0
20 21 -442 0
-20 21 442 0
-22 -23 443 0
22 -23 -443 0
-22 23 -443 0
22 23 443 0
25 26 444 0
-25 26 -444 0
25 -26 -444 0
-25 -26 444 0
28 -29 445 0
-28 -29 -445 0
28 29 -445 0
-28 29 445 0
31 35 446 0
-31 35 -446 0
31 -35 -446 0
-31 -35 446 0
40 41 447 0
-40 41 -447 0
40 -41 -447 0
-40 -41 447 0
43 -48 448 0
-43 -48 -448 0
43 48 -448 0
-43 48 448 0
49 50 449 0
-49 50 -449 0
49 -50 -449 0
-49 -50 449 0
438 -439 450 0
-438 -439 -450 0
438 439 -450 0
-438 439 450 0
440 -441 451 0
-440 -441 -451 0
440 441 -451 0
-440 441 451 0
442 -443 452 0
-442 -443 -452 0
442 443 -452 0
-442 443 452 0
444 -445 453 0
-444 -445 -453 0
444 445 -453 0
-444 445 453 0
446 -447 454 0
-446 -447 -454 0
446 447 -454 0
-446 447 454 0
448 -449 455 0
-448 -449 -455 0
448 449 -455 0
-448 449 455 0
450 -451 456 0
-450 -451 -456 0
450 451 -456 0
-450 451 456 0
452 -453 457 0
-452 -453 -457 0
452 453 -457 0
-452 453 457 0
454 -455 458 0
-454 -455 -458 0
454 455 -458 0
-454 455 458 0
-456 -457 458 0
456 -457 -458 0
-456 457 -458 0
456 457 458 0
1 -9 459 0
-1 -9 -459 0
1 9 -459 0
-1 9 459 0
10 -11 460 0
-10 -11 -460 0
10 11 -460 0
-10 11 460 0
16 18 461 0
-16 18 -461 0
16 -18 -461 0
-16 -18 461 0
-19 20 462 0
19 20 -462 0
-19 -20 -462 0
19 -20 462 0
-21 22 463 0
21 22 -463 0
-21 -22 -463 0
21 -22 463 0
-23 24 464 0
23 24 -464 0
-23 -24 -464 0
23 -24 464 0
25 -26 465 0
-25 -26 -465 0
25 26 -465 0
-25 26 465 0
27 29 466 0
-27 29 -466 0
27 -29 -466 0
-27 -29 466 0
-30 31 467 0
30 31 -467 0
-30 -31 -467 0
30 -31 467 0
32 33 468 0
-32 33 -468 0
32 -33 -468 0
-32 -33 468 0
-34 -35 469 0
34 -35 -469 0
-34 35 -469 0
34 35 469 0
-36 -38 470 0
36 -38 -470 0
-36 38 -470 0
36 38 470 0
-39 41 471 0
39 41 -471 0
-39 -41 -471 0
39 -41 471 0
42 44 472 0
-42 44 -472 0
42 -44 -472 0
-42 -44 472 0
-45 -46 473 0
45 -46 -473 0
-45 46 -473 0
45 46 473 0
-49 50 474 0
49 50 -474 0
-49 -50 -474 0
49 -50 474 0
459 -460 475 0
-459 -460 -475 0
459 460 -475 0
-459 460 475 0
461 -462 476 0
-461 -462 -476 0
461 462 -476 0
-461 462 476 0
463 -464 477 0
-463 -464 -477 0
463 464 -477 0
-463 464 477 0
465 -466 478 0
-465 -466 -478 0
465 466 -478 0
-465 466 478 0
467 -468 479 0
-467 -468 -479 0
467 468 -479 0
-467 468 479 0
469 -470 480 0
-469 -470 -480 0
469 470 -480 0
-469 470 480 0
471 -472 481 0
-471 -472 -481 0
471 472 -481 0
-471 472 481 0
473 -474 482 0
-473 -474 -482 0
473 474 -482 0
-473 474 482 0
475 -476 483 0
-475 -476 -483 0
475 476 -483 0
-475 476 483 0
477 -478 484 0
-477 -478 -484 0
477 478 -484 0
-477 478 484 0
479 -480 485 0
-479 -480 -485 0
479 480 -485 0
-479 480 485 0
481 -482 486 0
-481 -482 -486 0
481 482 -486 0
-481 482 486 0
483 -484 487 0
-483 -484 -487 0
483 484 -487 0
-483 484 487 0
485 -486 488 0
-485 -486 -488 0
485 486 -488 0
-485 486 488 0
487 488 0
-487 -488 0
